(declare-rel fail ())
(declare-rel inv2 (Int Int Int Int Int Int))
(declare-var A Int)
(declare-var B Int)
(declare-var C Int)
(declare-var D Int)
(declare-var E Int)
(declare-var F Int)
(declare-var G Int)
(declare-var H Int)
(declare-var I Int)
(rule (=> (and (= G 0) (>= D 0) (= I 0) (= C (* C A)) (= 1 A)) (inv2 G D I C A A)))
(rule (let ((a!1 (ite (< G (* 777 (+ 5 D))) (+ I A) I)))
(let ((a!2 (= F (ite (>= G (* 777 D)) a!1 I))))
  (=> (and (inv2 G D I C A A) (= E (+ A G)) (= H D) a!2) (inv2 E D F C A A)))))
(rule (let ((a!1 (and (inv2 G D I C A A) (>= G (* 777 (+ 10 D))) (not (= I C)))))
  (=> a!1 fail)))
(query fail)

